c this file is generated automatically by dimacs_tools software
c 
c graph contains 34 nodes and 126 arcs
p sp 34 126
c 
a 1 3 878.0
a 1 2 677.0
a 1 3 878.0
a 1 2 677.0
a 2 1 677.0
a 2 4 873.0
a 2 1 677.0
a 2 4 873.0
a 3 5 807.0
a 3 1 878.0
a 3 5 807.0
a 3 1 878.0
a 4 2 873.0
a 4 6 807.0
a 4 2 873.0
a 4 6 807.0
a 5 7 807.0
a 5 3 807.0
a 5 7 807.0
a 5 3 807.0
a 6 4 807.0
a 6 8 1210.0
a 6 4 807.0
a 6 8 1210.0
a 7 10 810.0
a 7 5 807.0
a 7 10 810.0
a 7 5 807.0
a 8 6 1210.0
a 8 11 1664.0
a 8 6 1210.0
a 8 11 1664.0
a 9 12 782.0
a 9 13 2774.0
a 9 12 782.0
a 9 13 2774.0
a 10 14 751.0
a 10 7 810.0
a 10 14 751.0
a 10 7 810.0
a 11 8 1664.0
a 11 12 4753.0
a 11 8 1664.0
a 11 12 4753.0
a 12 11 4753.0
a 12 9 782.0
a 12 11 4753.0
a 12 9 782.0
a 13 15 252.0
a 13 9 2774.0
a 13 15 252.0
a 13 9 2774.0
a 14 10 751.0
a 14 16 600.0
a 14 10 751.0
a 14 16 600.0
a 15 13 252.0
a 15 13 252.0
a 16 22 321.0
a 16 14 600.0
a 16 22 321.0
a 16 14 600.0
a 17 24 878.0
a 17 18 751.0
a 17 24 878.0
a 17 18 751.0
a 18 17 751.0
a 18 19 807.0
a 18 17 751.0
a 18 19 807.0
a 19 18 807.0
a 19 25 738.0
a 19 18 807.0
a 19 25 738.0
a 20 27 762.0
a 20 26 829.0
a 20 27 762.0
a 20 26 829.0
a 21 22 604.0
a 21 26 1095.0
a 21 22 604.0
a 21 26 1095.0
a 22 21 604.0
a 22 16 321.0
a 22 21 604.0
a 22 16 321.0
a 23 24 612.0
a 23 28 633.0
a 23 24 612.0
a 23 28 633.0
a 24 23 612.0
a 24 17 878.0
a 24 23 612.0
a 24 17 878.0
a 25 19 738.0
a 25 27 565.0
a 25 19 738.0
a 25 27 565.0
a 26 20 829.0
a 26 21 1095.0
a 26 20 829.0
a 26 21 1095.0
a 27 25 565.0
a 27 20 762.0
a 27 25 565.0
a 27 20 762.0
a 28 29 307.0
a 28 23 633.0
a 28 29 307.0
a 28 23 633.0
a 29 28 307.0
a 29 30 157.0
a 29 28 307.0
a 29 30 157.0
a 30 29 157.0
a 30 31 50.0
a 30 29 157.0
a 30 31 50.0
a 31 30 50.0
a 31 30 50.0
a 32 33 766.0
a 32 34 782.0
a 33 34 1074.0
a 33 32 766.0
a 34 33 1074.0
a 34 32 782.0
